MINIMIZE
y0 + y1 + y2 + y3 + y4 + y5 + y6 + y7 + y8 + y9 + y10 + y11 + y12 + y13 + y14 + y15 + y16 + y17 + y18 + y19 + y20 + y21 + y22 + y23 + y24 + y25 + y26 + y27 + y28 + y29 + y30 + y31 + y32 + y33 + y34 + y35 + y36 + y37 + y38 + y39 + y40 + y41 + y42 + y43 + y44 + y45 + y46 + y47 + y48 + y49 + y50 + y51 + y52 + y53 + y54 + y55 + y56 + y57 + y58 + y59 + y60 + y61 + y62 + y63
Subject To
y0 - temp_1_a_and_0 >= 0
x_0_a_1 - y0 <= 0
x_0_a_7 - y0 <= 0
x_0_a_1 + x_0_a_7 - y0 >= 0
y1 - temp_1_a_and_1 >= 0
x_0_a_2 - y1 <= 0
x_0_a_0 - y1 <= 0
x_0_a_2 + x_0_a_0 - y1 >= 0
y2 - temp_1_a_and_2 >= 0
x_0_a_3 - y2 <= 0
x_0_a_1 - y2 <= 0
x_0_a_3 + x_0_a_1 - y2 >= 0
y3 - temp_1_a_and_3 >= 0
x_0_a_4 - y3 <= 0
x_0_a_2 - y3 <= 0
x_0_a_4 + x_0_a_2 - y3 >= 0
y4 - temp_1_a_and_4 >= 0
x_0_a_5 - y4 <= 0
x_0_a_3 - y4 <= 0
x_0_a_5 + x_0_a_3 - y4 >= 0
y5 - temp_1_a_and_5 >= 0
x_0_a_6 - y5 <= 0
x_0_a_4 - y5 <= 0
x_0_a_6 + x_0_a_4 - y5 >= 0
y6 - temp_1_a_and_6 >= 0
x_0_a_7 - y6 <= 0
x_0_a_5 - y6 <= 0
x_0_a_7 + x_0_a_5 - y6 >= 0
y7 - temp_1_a_and_7 >= 0
x_0_a_0 - y7 <= 0
x_0_a_6 - y7 <= 0
x_0_a_0 + x_0_a_6 - y7 >= 0
temp_1_a_and_0 + x_0_b_0 + temp_1_a_xor_0 - 2 a0 >= 0
a0 - temp_1_a_and_0 >= 0
a0 - x_0_b_0 >= 0
a0 - temp_1_a_xor_0 >= 0
temp_1_a_and_0 + x_0_b_0 + temp_1_a_xor_0 <= 2
temp_1_a_and_1 + x_0_b_1 + temp_1_a_xor_1 - 2 a1 >= 0
a1 - temp_1_a_and_1 >= 0
a1 - x_0_b_1 >= 0
a1 - temp_1_a_xor_1 >= 0
temp_1_a_and_1 + x_0_b_1 + temp_1_a_xor_1 <= 2
temp_1_a_and_2 + x_0_b_2 + temp_1_a_xor_2 - 2 a2 >= 0
a2 - temp_1_a_and_2 >= 0
a2 - x_0_b_2 >= 0
a2 - temp_1_a_xor_2 >= 0
temp_1_a_and_2 + x_0_b_2 + temp_1_a_xor_2 <= 2
temp_1_a_and_3 + x_0_b_3 + temp_1_a_xor_3 - 2 a3 >= 0
a3 - temp_1_a_and_3 >= 0
a3 - x_0_b_3 >= 0
a3 - temp_1_a_xor_3 >= 0
temp_1_a_and_3 + x_0_b_3 + temp_1_a_xor_3 <= 2
temp_1_a_and_4 + x_0_b_4 + temp_1_a_xor_4 - 2 a4 >= 0
a4 - temp_1_a_and_4 >= 0
a4 - x_0_b_4 >= 0
a4 - temp_1_a_xor_4 >= 0
temp_1_a_and_4 + x_0_b_4 + temp_1_a_xor_4 <= 2
temp_1_a_and_5 + x_0_b_5 + temp_1_a_xor_5 - 2 a5 >= 0
a5 - temp_1_a_and_5 >= 0
a5 - x_0_b_5 >= 0
a5 - temp_1_a_xor_5 >= 0
temp_1_a_and_5 + x_0_b_5 + temp_1_a_xor_5 <= 2
temp_1_a_and_6 + x_0_b_6 + temp_1_a_xor_6 - 2 a6 >= 0
a6 - temp_1_a_and_6 >= 0
a6 - x_0_b_6 >= 0
a6 - temp_1_a_xor_6 >= 0
temp_1_a_and_6 + x_0_b_6 + temp_1_a_xor_6 <= 2
temp_1_a_and_7 + x_0_b_7 + temp_1_a_xor_7 - 2 a7 >= 0
a7 - temp_1_a_and_7 >= 0
a7 - x_0_b_7 >= 0
a7 - temp_1_a_xor_7 >= 0
temp_1_a_and_7 + x_0_b_7 + temp_1_a_xor_7 <= 2
x_0_a_2 + temp_1_a_xor_0 + x_1_c_0 - 2 a8 >= 0
a8 - x_0_a_2 >= 0
a8 - temp_1_a_xor_0 >= 0
a8 - x_1_c_0 >= 0
x_0_a_2 + temp_1_a_xor_0 + x_1_c_0 <= 2
x_0_a_3 + temp_1_a_xor_1 + x_1_c_1 - 2 a9 >= 0
a9 - x_0_a_3 >= 0
a9 - temp_1_a_xor_1 >= 0
a9 - x_1_c_1 >= 0
x_0_a_3 + temp_1_a_xor_1 + x_1_c_1 <= 2
x_0_a_4 + temp_1_a_xor_2 + x_1_c_2 - 2 a10 >= 0
a10 - x_0_a_4 >= 0
a10 - temp_1_a_xor_2 >= 0
a10 - x_1_c_2 >= 0
x_0_a_4 + temp_1_a_xor_2 + x_1_c_2 <= 2
x_0_a_5 + temp_1_a_xor_3 + x_1_c_3 - 2 a11 >= 0
a11 - x_0_a_5 >= 0
a11 - temp_1_a_xor_3 >= 0
a11 - x_1_c_3 >= 0
x_0_a_5 + temp_1_a_xor_3 + x_1_c_3 <= 2
x_0_a_6 + temp_1_a_xor_4 + x_1_c_4 - 2 a12 >= 0
a12 - x_0_a_6 >= 0
a12 - temp_1_a_xor_4 >= 0
a12 - x_1_c_4 >= 0
x_0_a_6 + temp_1_a_xor_4 + x_1_c_4 <= 2
x_0_a_7 + temp_1_a_xor_5 + x_1_c_5 - 2 a13 >= 0
a13 - x_0_a_7 >= 0
a13 - temp_1_a_xor_5 >= 0
a13 - x_1_c_5 >= 0
x_0_a_7 + temp_1_a_xor_5 + x_1_c_5 <= 2
x_0_a_0 + temp_1_a_xor_6 + x_1_c_6 - 2 a14 >= 0
a14 - x_0_a_0 >= 0
a14 - temp_1_a_xor_6 >= 0
a14 - x_1_c_6 >= 0
x_0_a_0 + temp_1_a_xor_6 + x_1_c_6 <= 2
x_0_a_1 + temp_1_a_xor_7 + x_1_c_7 - 2 a15 >= 0
a15 - x_0_a_1 >= 0
a15 - temp_1_a_xor_7 >= 0
a15 - x_1_c_7 >= 0
x_0_a_1 + temp_1_a_xor_7 + x_1_c_7 <= 2
y8 - temp_1_b_and_0 >= 0
x_0_c_1 - y8 <= 0
x_0_c_7 - y8 <= 0
x_0_c_1 + x_0_c_7 - y8 >= 0
y9 - temp_1_b_and_1 >= 0
x_0_c_2 - y9 <= 0
x_0_c_0 - y9 <= 0
x_0_c_2 + x_0_c_0 - y9 >= 0
y10 - temp_1_b_and_2 >= 0
x_0_c_3 - y10 <= 0
x_0_c_1 - y10 <= 0
x_0_c_3 + x_0_c_1 - y10 >= 0
y11 - temp_1_b_and_3 >= 0
x_0_c_4 - y11 <= 0
x_0_c_2 - y11 <= 0
x_0_c_4 + x_0_c_2 - y11 >= 0
y12 - temp_1_b_and_4 >= 0
x_0_c_5 - y12 <= 0
x_0_c_3 - y12 <= 0
x_0_c_5 + x_0_c_3 - y12 >= 0
y13 - temp_1_b_and_5 >= 0
x_0_c_6 - y13 <= 0
x_0_c_4 - y13 <= 0
x_0_c_6 + x_0_c_4 - y13 >= 0
y14 - temp_1_b_and_6 >= 0
x_0_c_7 - y14 <= 0
x_0_c_5 - y14 <= 0
x_0_c_7 + x_0_c_5 - y14 >= 0
y15 - temp_1_b_and_7 >= 0
x_0_c_0 - y15 <= 0
x_0_c_6 - y15 <= 0
x_0_c_0 + x_0_c_6 - y15 >= 0
temp_1_b_and_0 + x_0_d_0 + temp_1_b_xor_0 - 2 a16 >= 0
a16 - temp_1_b_and_0 >= 0
a16 - x_0_d_0 >= 0
a16 - temp_1_b_xor_0 >= 0
temp_1_b_and_0 + x_0_d_0 + temp_1_b_xor_0 <= 2
temp_1_b_and_1 + x_0_d_1 + temp_1_b_xor_1 - 2 a17 >= 0
a17 - temp_1_b_and_1 >= 0
a17 - x_0_d_1 >= 0
a17 - temp_1_b_xor_1 >= 0
temp_1_b_and_1 + x_0_d_1 + temp_1_b_xor_1 <= 2
temp_1_b_and_2 + x_0_d_2 + temp_1_b_xor_2 - 2 a18 >= 0
a18 - temp_1_b_and_2 >= 0
a18 - x_0_d_2 >= 0
a18 - temp_1_b_xor_2 >= 0
temp_1_b_and_2 + x_0_d_2 + temp_1_b_xor_2 <= 2
temp_1_b_and_3 + x_0_d_3 + temp_1_b_xor_3 - 2 a19 >= 0
a19 - temp_1_b_and_3 >= 0
a19 - x_0_d_3 >= 0
a19 - temp_1_b_xor_3 >= 0
temp_1_b_and_3 + x_0_d_3 + temp_1_b_xor_3 <= 2
temp_1_b_and_4 + x_0_d_4 + temp_1_b_xor_4 - 2 a20 >= 0
a20 - temp_1_b_and_4 >= 0
a20 - x_0_d_4 >= 0
a20 - temp_1_b_xor_4 >= 0
temp_1_b_and_4 + x_0_d_4 + temp_1_b_xor_4 <= 2
temp_1_b_and_5 + x_0_d_5 + temp_1_b_xor_5 - 2 a21 >= 0
a21 - temp_1_b_and_5 >= 0
a21 - x_0_d_5 >= 0
a21 - temp_1_b_xor_5 >= 0
temp_1_b_and_5 + x_0_d_5 + temp_1_b_xor_5 <= 2
temp_1_b_and_6 + x_0_d_6 + temp_1_b_xor_6 - 2 a22 >= 0
a22 - temp_1_b_and_6 >= 0
a22 - x_0_d_6 >= 0
a22 - temp_1_b_xor_6 >= 0
temp_1_b_and_6 + x_0_d_6 + temp_1_b_xor_6 <= 2
temp_1_b_and_7 + x_0_d_7 + temp_1_b_xor_7 - 2 a23 >= 0
a23 - temp_1_b_and_7 >= 0
a23 - x_0_d_7 >= 0
a23 - temp_1_b_xor_7 >= 0
temp_1_b_and_7 + x_0_d_7 + temp_1_b_xor_7 <= 2
x_0_c_2 + temp_1_b_xor_0 + x_1_a_0 - 2 a24 >= 0
a24 - x_0_c_2 >= 0
a24 - temp_1_b_xor_0 >= 0
a24 - x_1_a_0 >= 0
x_0_c_2 + temp_1_b_xor_0 + x_1_a_0 <= 2
x_0_c_3 + temp_1_b_xor_1 + x_1_a_1 - 2 a25 >= 0
a25 - x_0_c_3 >= 0
a25 - temp_1_b_xor_1 >= 0
a25 - x_1_a_1 >= 0
x_0_c_3 + temp_1_b_xor_1 + x_1_a_1 <= 2
x_0_c_4 + temp_1_b_xor_2 + x_1_a_2 - 2 a26 >= 0
a26 - x_0_c_4 >= 0
a26 - temp_1_b_xor_2 >= 0
a26 - x_1_a_2 >= 0
x_0_c_4 + temp_1_b_xor_2 + x_1_a_2 <= 2
x_0_c_5 + temp_1_b_xor_3 + x_1_a_3 - 2 a27 >= 0
a27 - x_0_c_5 >= 0
a27 - temp_1_b_xor_3 >= 0
a27 - x_1_a_3 >= 0
x_0_c_5 + temp_1_b_xor_3 + x_1_a_3 <= 2
x_0_c_6 + temp_1_b_xor_4 + x_1_a_4 - 2 a28 >= 0
a28 - x_0_c_6 >= 0
a28 - temp_1_b_xor_4 >= 0
a28 - x_1_a_4 >= 0
x_0_c_6 + temp_1_b_xor_4 + x_1_a_4 <= 2
x_0_c_7 + temp_1_b_xor_5 + x_1_a_5 - 2 a29 >= 0
a29 - x_0_c_7 >= 0
a29 - temp_1_b_xor_5 >= 0
a29 - x_1_a_5 >= 0
x_0_c_7 + temp_1_b_xor_5 + x_1_a_5 <= 2
x_0_c_0 + temp_1_b_xor_6 + x_1_a_6 - 2 a30 >= 0
a30 - x_0_c_0 >= 0
a30 - temp_1_b_xor_6 >= 0
a30 - x_1_a_6 >= 0
x_0_c_0 + temp_1_b_xor_6 + x_1_a_6 <= 2
x_0_c_1 + temp_1_b_xor_7 + x_1_a_7 - 2 a31 >= 0
a31 - x_0_c_1 >= 0
a31 - temp_1_b_xor_7 >= 0
a31 - x_1_a_7 >= 0
x_0_c_1 + temp_1_b_xor_7 + x_1_a_7 <= 2
y16 - temp_1_c_and_0 >= 0
x_1_c_1 - y16 <= 0
x_1_c_7 - y16 <= 0
x_1_c_1 + x_1_c_7 - y16 >= 0
y17 - temp_1_c_and_1 >= 0
x_1_c_2 - y17 <= 0
x_1_c_0 - y17 <= 0
x_1_c_2 + x_1_c_0 - y17 >= 0
y18 - temp_1_c_and_2 >= 0
x_1_c_3 - y18 <= 0
x_1_c_1 - y18 <= 0
x_1_c_3 + x_1_c_1 - y18 >= 0
y19 - temp_1_c_and_3 >= 0
x_1_c_4 - y19 <= 0
x_1_c_2 - y19 <= 0
x_1_c_4 + x_1_c_2 - y19 >= 0
y20 - temp_1_c_and_4 >= 0
x_1_c_5 - y20 <= 0
x_1_c_3 - y20 <= 0
x_1_c_5 + x_1_c_3 - y20 >= 0
y21 - temp_1_c_and_5 >= 0
x_1_c_6 - y21 <= 0
x_1_c_4 - y21 <= 0
x_1_c_6 + x_1_c_4 - y21 >= 0
y22 - temp_1_c_and_6 >= 0
x_1_c_7 - y22 <= 0
x_1_c_5 - y22 <= 0
x_1_c_7 + x_1_c_5 - y22 >= 0
y23 - temp_1_c_and_7 >= 0
x_1_c_0 - y23 <= 0
x_1_c_6 - y23 <= 0
x_1_c_0 + x_1_c_6 - y23 >= 0
temp_1_c_and_0 + x_0_a_0 + temp_1_c_xor_0 - 2 a32 >= 0
a32 - temp_1_c_and_0 >= 0
a32 - x_0_a_0 >= 0
a32 - temp_1_c_xor_0 >= 0
temp_1_c_and_0 + x_0_a_0 + temp_1_c_xor_0 <= 2
temp_1_c_and_1 + x_0_a_1 + temp_1_c_xor_1 - 2 a33 >= 0
a33 - temp_1_c_and_1 >= 0
a33 - x_0_a_1 >= 0
a33 - temp_1_c_xor_1 >= 0
temp_1_c_and_1 + x_0_a_1 + temp_1_c_xor_1 <= 2
temp_1_c_and_2 + x_0_a_2 + temp_1_c_xor_2 - 2 a34 >= 0
a34 - temp_1_c_and_2 >= 0
a34 - x_0_a_2 >= 0
a34 - temp_1_c_xor_2 >= 0
temp_1_c_and_2 + x_0_a_2 + temp_1_c_xor_2 <= 2
temp_1_c_and_3 + x_0_a_3 + temp_1_c_xor_3 - 2 a35 >= 0
a35 - temp_1_c_and_3 >= 0
a35 - x_0_a_3 >= 0
a35 - temp_1_c_xor_3 >= 0
temp_1_c_and_3 + x_0_a_3 + temp_1_c_xor_3 <= 2
temp_1_c_and_4 + x_0_a_4 + temp_1_c_xor_4 - 2 a36 >= 0
a36 - temp_1_c_and_4 >= 0
a36 - x_0_a_4 >= 0
a36 - temp_1_c_xor_4 >= 0
temp_1_c_and_4 + x_0_a_4 + temp_1_c_xor_4 <= 2
temp_1_c_and_5 + x_0_a_5 + temp_1_c_xor_5 - 2 a37 >= 0
a37 - temp_1_c_and_5 >= 0
a37 - x_0_a_5 >= 0
a37 - temp_1_c_xor_5 >= 0
temp_1_c_and_5 + x_0_a_5 + temp_1_c_xor_5 <= 2
temp_1_c_and_6 + x_0_a_6 + temp_1_c_xor_6 - 2 a38 >= 0
a38 - temp_1_c_and_6 >= 0
a38 - x_0_a_6 >= 0
a38 - temp_1_c_xor_6 >= 0
temp_1_c_and_6 + x_0_a_6 + temp_1_c_xor_6 <= 2
temp_1_c_and_7 + x_0_a_7 + temp_1_c_xor_7 - 2 a39 >= 0
a39 - temp_1_c_and_7 >= 0
a39 - x_0_a_7 >= 0
a39 - temp_1_c_xor_7 >= 0
temp_1_c_and_7 + x_0_a_7 + temp_1_c_xor_7 <= 2
x_1_c_2 + temp_1_c_xor_0 + x_1_b_0 - 2 a40 >= 0
a40 - x_1_c_2 >= 0
a40 - temp_1_c_xor_0 >= 0
a40 - x_1_b_0 >= 0
x_1_c_2 + temp_1_c_xor_0 + x_1_b_0 <= 2
x_1_c_3 + temp_1_c_xor_1 + x_1_b_1 - 2 a41 >= 0
a41 - x_1_c_3 >= 0
a41 - temp_1_c_xor_1 >= 0
a41 - x_1_b_1 >= 0
x_1_c_3 + temp_1_c_xor_1 + x_1_b_1 <= 2
x_1_c_4 + temp_1_c_xor_2 + x_1_b_2 - 2 a42 >= 0
a42 - x_1_c_4 >= 0
a42 - temp_1_c_xor_2 >= 0
a42 - x_1_b_2 >= 0
x_1_c_4 + temp_1_c_xor_2 + x_1_b_2 <= 2
x_1_c_5 + temp_1_c_xor_3 + x_1_b_3 - 2 a43 >= 0
a43 - x_1_c_5 >= 0
a43 - temp_1_c_xor_3 >= 0
a43 - x_1_b_3 >= 0
x_1_c_5 + temp_1_c_xor_3 + x_1_b_3 <= 2
x_1_c_6 + temp_1_c_xor_4 + x_1_b_4 - 2 a44 >= 0
a44 - x_1_c_6 >= 0
a44 - temp_1_c_xor_4 >= 0
a44 - x_1_b_4 >= 0
x_1_c_6 + temp_1_c_xor_4 + x_1_b_4 <= 2
x_1_c_7 + temp_1_c_xor_5 + x_1_b_5 - 2 a45 >= 0
a45 - x_1_c_7 >= 0
a45 - temp_1_c_xor_5 >= 0
a45 - x_1_b_5 >= 0
x_1_c_7 + temp_1_c_xor_5 + x_1_b_5 <= 2
x_1_c_0 + temp_1_c_xor_6 + x_1_b_6 - 2 a46 >= 0
a46 - x_1_c_0 >= 0
a46 - temp_1_c_xor_6 >= 0
a46 - x_1_b_6 >= 0
x_1_c_0 + temp_1_c_xor_6 + x_1_b_6 <= 2
x_1_c_1 + temp_1_c_xor_7 + x_1_b_7 - 2 a47 >= 0
a47 - x_1_c_1 >= 0
a47 - temp_1_c_xor_7 >= 0
a47 - x_1_b_7 >= 0
x_1_c_1 + temp_1_c_xor_7 + x_1_b_7 <= 2
y24 - temp_1_d_and_0 >= 0
x_1_a_1 - y24 <= 0
x_1_a_7 - y24 <= 0
x_1_a_1 + x_1_a_7 - y24 >= 0
y25 - temp_1_d_and_1 >= 0
x_1_a_2 - y25 <= 0
x_1_a_0 - y25 <= 0
x_1_a_2 + x_1_a_0 - y25 >= 0
y26 - temp_1_d_and_2 >= 0
x_1_a_3 - y26 <= 0
x_1_a_1 - y26 <= 0
x_1_a_3 + x_1_a_1 - y26 >= 0
y27 - temp_1_d_and_3 >= 0
x_1_a_4 - y27 <= 0
x_1_a_2 - y27 <= 0
x_1_a_4 + x_1_a_2 - y27 >= 0
y28 - temp_1_d_and_4 >= 0
x_1_a_5 - y28 <= 0
x_1_a_3 - y28 <= 0
x_1_a_5 + x_1_a_3 - y28 >= 0
y29 - temp_1_d_and_5 >= 0
x_1_a_6 - y29 <= 0
x_1_a_4 - y29 <= 0
x_1_a_6 + x_1_a_4 - y29 >= 0
y30 - temp_1_d_and_6 >= 0
x_1_a_7 - y30 <= 0
x_1_a_5 - y30 <= 0
x_1_a_7 + x_1_a_5 - y30 >= 0
y31 - temp_1_d_and_7 >= 0
x_1_a_0 - y31 <= 0
x_1_a_6 - y31 <= 0
x_1_a_0 + x_1_a_6 - y31 >= 0
temp_1_d_and_0 + x_0_c_0 + temp_1_d_xor_0 - 2 a48 >= 0
a48 - temp_1_d_and_0 >= 0
a48 - x_0_c_0 >= 0
a48 - temp_1_d_xor_0 >= 0
temp_1_d_and_0 + x_0_c_0 + temp_1_d_xor_0 <= 2
temp_1_d_and_1 + x_0_c_1 + temp_1_d_xor_1 - 2 a49 >= 0
a49 - temp_1_d_and_1 >= 0
a49 - x_0_c_1 >= 0
a49 - temp_1_d_xor_1 >= 0
temp_1_d_and_1 + x_0_c_1 + temp_1_d_xor_1 <= 2
temp_1_d_and_2 + x_0_c_2 + temp_1_d_xor_2 - 2 a50 >= 0
a50 - temp_1_d_and_2 >= 0
a50 - x_0_c_2 >= 0
a50 - temp_1_d_xor_2 >= 0
temp_1_d_and_2 + x_0_c_2 + temp_1_d_xor_2 <= 2
temp_1_d_and_3 + x_0_c_3 + temp_1_d_xor_3 - 2 a51 >= 0
a51 - temp_1_d_and_3 >= 0
a51 - x_0_c_3 >= 0
a51 - temp_1_d_xor_3 >= 0
temp_1_d_and_3 + x_0_c_3 + temp_1_d_xor_3 <= 2
temp_1_d_and_4 + x_0_c_4 + temp_1_d_xor_4 - 2 a52 >= 0
a52 - temp_1_d_and_4 >= 0
a52 - x_0_c_4 >= 0
a52 - temp_1_d_xor_4 >= 0
temp_1_d_and_4 + x_0_c_4 + temp_1_d_xor_4 <= 2
temp_1_d_and_5 + x_0_c_5 + temp_1_d_xor_5 - 2 a53 >= 0
a53 - temp_1_d_and_5 >= 0
a53 - x_0_c_5 >= 0
a53 - temp_1_d_xor_5 >= 0
temp_1_d_and_5 + x_0_c_5 + temp_1_d_xor_5 <= 2
temp_1_d_and_6 + x_0_c_6 + temp_1_d_xor_6 - 2 a54 >= 0
a54 - temp_1_d_and_6 >= 0
a54 - x_0_c_6 >= 0
a54 - temp_1_d_xor_6 >= 0
temp_1_d_and_6 + x_0_c_6 + temp_1_d_xor_6 <= 2
temp_1_d_and_7 + x_0_c_7 + temp_1_d_xor_7 - 2 a55 >= 0
a55 - temp_1_d_and_7 >= 0
a55 - x_0_c_7 >= 0
a55 - temp_1_d_xor_7 >= 0
temp_1_d_and_7 + x_0_c_7 + temp_1_d_xor_7 <= 2
x_1_a_2 + temp_1_d_xor_0 + x_1_d_0 - 2 a56 >= 0
a56 - x_1_a_2 >= 0
a56 - temp_1_d_xor_0 >= 0
a56 - x_1_d_0 >= 0
x_1_a_2 + temp_1_d_xor_0 + x_1_d_0 <= 2
x_1_a_3 + temp_1_d_xor_1 + x_1_d_1 - 2 a57 >= 0
a57 - x_1_a_3 >= 0
a57 - temp_1_d_xor_1 >= 0
a57 - x_1_d_1 >= 0
x_1_a_3 + temp_1_d_xor_1 + x_1_d_1 <= 2
x_1_a_4 + temp_1_d_xor_2 + x_1_d_2 - 2 a58 >= 0
a58 - x_1_a_4 >= 0
a58 - temp_1_d_xor_2 >= 0
a58 - x_1_d_2 >= 0
x_1_a_4 + temp_1_d_xor_2 + x_1_d_2 <= 2
x_1_a_5 + temp_1_d_xor_3 + x_1_d_3 - 2 a59 >= 0
a59 - x_1_a_5 >= 0
a59 - temp_1_d_xor_3 >= 0
a59 - x_1_d_3 >= 0
x_1_a_5 + temp_1_d_xor_3 + x_1_d_3 <= 2
x_1_a_6 + temp_1_d_xor_4 + x_1_d_4 - 2 a60 >= 0
a60 - x_1_a_6 >= 0
a60 - temp_1_d_xor_4 >= 0
a60 - x_1_d_4 >= 0
x_1_a_6 + temp_1_d_xor_4 + x_1_d_4 <= 2
x_1_a_7 + temp_1_d_xor_5 + x_1_d_5 - 2 a61 >= 0
a61 - x_1_a_7 >= 0
a61 - temp_1_d_xor_5 >= 0
a61 - x_1_d_5 >= 0
x_1_a_7 + temp_1_d_xor_5 + x_1_d_5 <= 2
x_1_a_0 + temp_1_d_xor_6 + x_1_d_6 - 2 a62 >= 0
a62 - x_1_a_0 >= 0
a62 - temp_1_d_xor_6 >= 0
a62 - x_1_d_6 >= 0
x_1_a_0 + temp_1_d_xor_6 + x_1_d_6 <= 2
x_1_a_1 + temp_1_d_xor_7 + x_1_d_7 - 2 a63 >= 0
a63 - x_1_a_1 >= 0
a63 - temp_1_d_xor_7 >= 0
a63 - x_1_d_7 >= 0
x_1_a_1 + temp_1_d_xor_7 + x_1_d_7 <= 2
y32 - temp_2_a_and_0 >= 0
x_1_a_1 - y32 <= 0
x_1_a_7 - y32 <= 0
x_1_a_1 + x_1_a_7 - y32 >= 0
y33 - temp_2_a_and_1 >= 0
x_1_a_2 - y33 <= 0
x_1_a_0 - y33 <= 0
x_1_a_2 + x_1_a_0 - y33 >= 0
y34 - temp_2_a_and_2 >= 0
x_1_a_3 - y34 <= 0
x_1_a_1 - y34 <= 0
x_1_a_3 + x_1_a_1 - y34 >= 0
y35 - temp_2_a_and_3 >= 0
x_1_a_4 - y35 <= 0
x_1_a_2 - y35 <= 0
x_1_a_4 + x_1_a_2 - y35 >= 0
y36 - temp_2_a_and_4 >= 0
x_1_a_5 - y36 <= 0
x_1_a_3 - y36 <= 0
x_1_a_5 + x_1_a_3 - y36 >= 0
y37 - temp_2_a_and_5 >= 0
x_1_a_6 - y37 <= 0
x_1_a_4 - y37 <= 0
x_1_a_6 + x_1_a_4 - y37 >= 0
y38 - temp_2_a_and_6 >= 0
x_1_a_7 - y38 <= 0
x_1_a_5 - y38 <= 0
x_1_a_7 + x_1_a_5 - y38 >= 0
y39 - temp_2_a_and_7 >= 0
x_1_a_0 - y39 <= 0
x_1_a_6 - y39 <= 0
x_1_a_0 + x_1_a_6 - y39 >= 0
temp_2_a_and_0 + x_1_b_0 + temp_2_a_xor_0 - 2 a64 >= 0
a64 - temp_2_a_and_0 >= 0
a64 - x_1_b_0 >= 0
a64 - temp_2_a_xor_0 >= 0
temp_2_a_and_0 + x_1_b_0 + temp_2_a_xor_0 <= 2
temp_2_a_and_1 + x_1_b_1 + temp_2_a_xor_1 - 2 a65 >= 0
a65 - temp_2_a_and_1 >= 0
a65 - x_1_b_1 >= 0
a65 - temp_2_a_xor_1 >= 0
temp_2_a_and_1 + x_1_b_1 + temp_2_a_xor_1 <= 2
temp_2_a_and_2 + x_1_b_2 + temp_2_a_xor_2 - 2 a66 >= 0
a66 - temp_2_a_and_2 >= 0
a66 - x_1_b_2 >= 0
a66 - temp_2_a_xor_2 >= 0
temp_2_a_and_2 + x_1_b_2 + temp_2_a_xor_2 <= 2
temp_2_a_and_3 + x_1_b_3 + temp_2_a_xor_3 - 2 a67 >= 0
a67 - temp_2_a_and_3 >= 0
a67 - x_1_b_3 >= 0
a67 - temp_2_a_xor_3 >= 0
temp_2_a_and_3 + x_1_b_3 + temp_2_a_xor_3 <= 2
temp_2_a_and_4 + x_1_b_4 + temp_2_a_xor_4 - 2 a68 >= 0
a68 - temp_2_a_and_4 >= 0
a68 - x_1_b_4 >= 0
a68 - temp_2_a_xor_4 >= 0
temp_2_a_and_4 + x_1_b_4 + temp_2_a_xor_4 <= 2
temp_2_a_and_5 + x_1_b_5 + temp_2_a_xor_5 - 2 a69 >= 0
a69 - temp_2_a_and_5 >= 0
a69 - x_1_b_5 >= 0
a69 - temp_2_a_xor_5 >= 0
temp_2_a_and_5 + x_1_b_5 + temp_2_a_xor_5 <= 2
temp_2_a_and_6 + x_1_b_6 + temp_2_a_xor_6 - 2 a70 >= 0
a70 - temp_2_a_and_6 >= 0
a70 - x_1_b_6 >= 0
a70 - temp_2_a_xor_6 >= 0
temp_2_a_and_6 + x_1_b_6 + temp_2_a_xor_6 <= 2
temp_2_a_and_7 + x_1_b_7 + temp_2_a_xor_7 - 2 a71 >= 0
a71 - temp_2_a_and_7 >= 0
a71 - x_1_b_7 >= 0
a71 - temp_2_a_xor_7 >= 0
temp_2_a_and_7 + x_1_b_7 + temp_2_a_xor_7 <= 2
x_1_a_2 + temp_2_a_xor_0 + x_2_c_0 - 2 a72 >= 0
a72 - x_1_a_2 >= 0
a72 - temp_2_a_xor_0 >= 0
a72 - x_2_c_0 >= 0
x_1_a_2 + temp_2_a_xor_0 + x_2_c_0 <= 2
x_1_a_3 + temp_2_a_xor_1 + x_2_c_1 - 2 a73 >= 0
a73 - x_1_a_3 >= 0
a73 - temp_2_a_xor_1 >= 0
a73 - x_2_c_1 >= 0
x_1_a_3 + temp_2_a_xor_1 + x_2_c_1 <= 2
x_1_a_4 + temp_2_a_xor_2 + x_2_c_2 - 2 a74 >= 0
a74 - x_1_a_4 >= 0
a74 - temp_2_a_xor_2 >= 0
a74 - x_2_c_2 >= 0
x_1_a_4 + temp_2_a_xor_2 + x_2_c_2 <= 2
x_1_a_5 + temp_2_a_xor_3 + x_2_c_3 - 2 a75 >= 0
a75 - x_1_a_5 >= 0
a75 - temp_2_a_xor_3 >= 0
a75 - x_2_c_3 >= 0
x_1_a_5 + temp_2_a_xor_3 + x_2_c_3 <= 2
x_1_a_6 + temp_2_a_xor_4 + x_2_c_4 - 2 a76 >= 0
a76 - x_1_a_6 >= 0
a76 - temp_2_a_xor_4 >= 0
a76 - x_2_c_4 >= 0
x_1_a_6 + temp_2_a_xor_4 + x_2_c_4 <= 2
x_1_a_7 + temp_2_a_xor_5 + x_2_c_5 - 2 a77 >= 0
a77 - x_1_a_7 >= 0
a77 - temp_2_a_xor_5 >= 0
a77 - x_2_c_5 >= 0
x_1_a_7 + temp_2_a_xor_5 + x_2_c_5 <= 2
x_1_a_0 + temp_2_a_xor_6 + x_2_c_6 - 2 a78 >= 0
a78 - x_1_a_0 >= 0
a78 - temp_2_a_xor_6 >= 0
a78 - x_2_c_6 >= 0
x_1_a_0 + temp_2_a_xor_6 + x_2_c_6 <= 2
x_1_a_1 + temp_2_a_xor_7 + x_2_c_7 - 2 a79 >= 0
a79 - x_1_a_1 >= 0
a79 - temp_2_a_xor_7 >= 0
a79 - x_2_c_7 >= 0
x_1_a_1 + temp_2_a_xor_7 + x_2_c_7 <= 2
y40 - temp_2_b_and_0 >= 0
x_1_c_1 - y40 <= 0
x_1_c_7 - y40 <= 0
x_1_c_1 + x_1_c_7 - y40 >= 0
y41 - temp_2_b_and_1 >= 0
x_1_c_2 - y41 <= 0
x_1_c_0 - y41 <= 0
x_1_c_2 + x_1_c_0 - y41 >= 0
y42 - temp_2_b_and_2 >= 0
x_1_c_3 - y42 <= 0
x_1_c_1 - y42 <= 0
x_1_c_3 + x_1_c_1 - y42 >= 0
y43 - temp_2_b_and_3 >= 0
x_1_c_4 - y43 <= 0
x_1_c_2 - y43 <= 0
x_1_c_4 + x_1_c_2 - y43 >= 0
y44 - temp_2_b_and_4 >= 0
x_1_c_5 - y44 <= 0
x_1_c_3 - y44 <= 0
x_1_c_5 + x_1_c_3 - y44 >= 0
y45 - temp_2_b_and_5 >= 0
x_1_c_6 - y45 <= 0
x_1_c_4 - y45 <= 0
x_1_c_6 + x_1_c_4 - y45 >= 0
y46 - temp_2_b_and_6 >= 0
x_1_c_7 - y46 <= 0
x_1_c_5 - y46 <= 0
x_1_c_7 + x_1_c_5 - y46 >= 0
y47 - temp_2_b_and_7 >= 0
x_1_c_0 - y47 <= 0
x_1_c_6 - y47 <= 0
x_1_c_0 + x_1_c_6 - y47 >= 0
temp_2_b_and_0 + x_1_d_0 + temp_2_b_xor_0 - 2 a80 >= 0
a80 - temp_2_b_and_0 >= 0
a80 - x_1_d_0 >= 0
a80 - temp_2_b_xor_0 >= 0
temp_2_b_and_0 + x_1_d_0 + temp_2_b_xor_0 <= 2
temp_2_b_and_1 + x_1_d_1 + temp_2_b_xor_1 - 2 a81 >= 0
a81 - temp_2_b_and_1 >= 0
a81 - x_1_d_1 >= 0
a81 - temp_2_b_xor_1 >= 0
temp_2_b_and_1 + x_1_d_1 + temp_2_b_xor_1 <= 2
temp_2_b_and_2 + x_1_d_2 + temp_2_b_xor_2 - 2 a82 >= 0
a82 - temp_2_b_and_2 >= 0
a82 - x_1_d_2 >= 0
a82 - temp_2_b_xor_2 >= 0
temp_2_b_and_2 + x_1_d_2 + temp_2_b_xor_2 <= 2
temp_2_b_and_3 + x_1_d_3 + temp_2_b_xor_3 - 2 a83 >= 0
a83 - temp_2_b_and_3 >= 0
a83 - x_1_d_3 >= 0
a83 - temp_2_b_xor_3 >= 0
temp_2_b_and_3 + x_1_d_3 + temp_2_b_xor_3 <= 2
temp_2_b_and_4 + x_1_d_4 + temp_2_b_xor_4 - 2 a84 >= 0
a84 - temp_2_b_and_4 >= 0
a84 - x_1_d_4 >= 0
a84 - temp_2_b_xor_4 >= 0
temp_2_b_and_4 + x_1_d_4 + temp_2_b_xor_4 <= 2
temp_2_b_and_5 + x_1_d_5 + temp_2_b_xor_5 - 2 a85 >= 0
a85 - temp_2_b_and_5 >= 0
a85 - x_1_d_5 >= 0
a85 - temp_2_b_xor_5 >= 0
temp_2_b_and_5 + x_1_d_5 + temp_2_b_xor_5 <= 2
temp_2_b_and_6 + x_1_d_6 + temp_2_b_xor_6 - 2 a86 >= 0
a86 - temp_2_b_and_6 >= 0
a86 - x_1_d_6 >= 0
a86 - temp_2_b_xor_6 >= 0
temp_2_b_and_6 + x_1_d_6 + temp_2_b_xor_6 <= 2
temp_2_b_and_7 + x_1_d_7 + temp_2_b_xor_7 - 2 a87 >= 0
a87 - temp_2_b_and_7 >= 0
a87 - x_1_d_7 >= 0
a87 - temp_2_b_xor_7 >= 0
temp_2_b_and_7 + x_1_d_7 + temp_2_b_xor_7 <= 2
x_1_c_2 + temp_2_b_xor_0 + x_2_a_0 - 2 a88 >= 0
a88 - x_1_c_2 >= 0
a88 - temp_2_b_xor_0 >= 0
a88 - x_2_a_0 >= 0
x_1_c_2 + temp_2_b_xor_0 + x_2_a_0 <= 2
x_1_c_3 + temp_2_b_xor_1 + x_2_a_1 - 2 a89 >= 0
a89 - x_1_c_3 >= 0
a89 - temp_2_b_xor_1 >= 0
a89 - x_2_a_1 >= 0
x_1_c_3 + temp_2_b_xor_1 + x_2_a_1 <= 2
x_1_c_4 + temp_2_b_xor_2 + x_2_a_2 - 2 a90 >= 0
a90 - x_1_c_4 >= 0
a90 - temp_2_b_xor_2 >= 0
a90 - x_2_a_2 >= 0
x_1_c_4 + temp_2_b_xor_2 + x_2_a_2 <= 2
x_1_c_5 + temp_2_b_xor_3 + x_2_a_3 - 2 a91 >= 0
a91 - x_1_c_5 >= 0
a91 - temp_2_b_xor_3 >= 0
a91 - x_2_a_3 >= 0
x_1_c_5 + temp_2_b_xor_3 + x_2_a_3 <= 2
x_1_c_6 + temp_2_b_xor_4 + x_2_a_4 - 2 a92 >= 0
a92 - x_1_c_6 >= 0
a92 - temp_2_b_xor_4 >= 0
a92 - x_2_a_4 >= 0
x_1_c_6 + temp_2_b_xor_4 + x_2_a_4 <= 2
x_1_c_7 + temp_2_b_xor_5 + x_2_a_5 - 2 a93 >= 0
a93 - x_1_c_7 >= 0
a93 - temp_2_b_xor_5 >= 0
a93 - x_2_a_5 >= 0
x_1_c_7 + temp_2_b_xor_5 + x_2_a_5 <= 2
x_1_c_0 + temp_2_b_xor_6 + x_2_a_6 - 2 a94 >= 0
a94 - x_1_c_0 >= 0
a94 - temp_2_b_xor_6 >= 0
a94 - x_2_a_6 >= 0
x_1_c_0 + temp_2_b_xor_6 + x_2_a_6 <= 2
x_1_c_1 + temp_2_b_xor_7 + x_2_a_7 - 2 a95 >= 0
a95 - x_1_c_1 >= 0
a95 - temp_2_b_xor_7 >= 0
a95 - x_2_a_7 >= 0
x_1_c_1 + temp_2_b_xor_7 + x_2_a_7 <= 2
y48 - temp_2_c_and_0 >= 0
x_2_c_1 - y48 <= 0
x_2_c_7 - y48 <= 0
x_2_c_1 + x_2_c_7 - y48 >= 0
y49 - temp_2_c_and_1 >= 0
x_2_c_2 - y49 <= 0
x_2_c_0 - y49 <= 0
x_2_c_2 + x_2_c_0 - y49 >= 0
y50 - temp_2_c_and_2 >= 0
x_2_c_3 - y50 <= 0
x_2_c_1 - y50 <= 0
x_2_c_3 + x_2_c_1 - y50 >= 0
y51 - temp_2_c_and_3 >= 0
x_2_c_4 - y51 <= 0
x_2_c_2 - y51 <= 0
x_2_c_4 + x_2_c_2 - y51 >= 0
y52 - temp_2_c_and_4 >= 0
x_2_c_5 - y52 <= 0
x_2_c_3 - y52 <= 0
x_2_c_5 + x_2_c_3 - y52 >= 0
y53 - temp_2_c_and_5 >= 0
x_2_c_6 - y53 <= 0
x_2_c_4 - y53 <= 0
x_2_c_6 + x_2_c_4 - y53 >= 0
y54 - temp_2_c_and_6 >= 0
x_2_c_7 - y54 <= 0
x_2_c_5 - y54 <= 0
x_2_c_7 + x_2_c_5 - y54 >= 0
y55 - temp_2_c_and_7 >= 0
x_2_c_0 - y55 <= 0
x_2_c_6 - y55 <= 0
x_2_c_0 + x_2_c_6 - y55 >= 0
temp_2_c_and_0 + x_1_a_0 + temp_2_c_xor_0 - 2 a96 >= 0
a96 - temp_2_c_and_0 >= 0
a96 - x_1_a_0 >= 0
a96 - temp_2_c_xor_0 >= 0
temp_2_c_and_0 + x_1_a_0 + temp_2_c_xor_0 <= 2
temp_2_c_and_1 + x_1_a_1 + temp_2_c_xor_1 - 2 a97 >= 0
a97 - temp_2_c_and_1 >= 0
a97 - x_1_a_1 >= 0
a97 - temp_2_c_xor_1 >= 0
temp_2_c_and_1 + x_1_a_1 + temp_2_c_xor_1 <= 2
temp_2_c_and_2 + x_1_a_2 + temp_2_c_xor_2 - 2 a98 >= 0
a98 - temp_2_c_and_2 >= 0
a98 - x_1_a_2 >= 0
a98 - temp_2_c_xor_2 >= 0
temp_2_c_and_2 + x_1_a_2 + temp_2_c_xor_2 <= 2
temp_2_c_and_3 + x_1_a_3 + temp_2_c_xor_3 - 2 a99 >= 0
a99 - temp_2_c_and_3 >= 0
a99 - x_1_a_3 >= 0
a99 - temp_2_c_xor_3 >= 0
temp_2_c_and_3 + x_1_a_3 + temp_2_c_xor_3 <= 2
temp_2_c_and_4 + x_1_a_4 + temp_2_c_xor_4 - 2 a100 >= 0
a100 - temp_2_c_and_4 >= 0
a100 - x_1_a_4 >= 0
a100 - temp_2_c_xor_4 >= 0
temp_2_c_and_4 + x_1_a_4 + temp_2_c_xor_4 <= 2
temp_2_c_and_5 + x_1_a_5 + temp_2_c_xor_5 - 2 a101 >= 0
a101 - temp_2_c_and_5 >= 0
a101 - x_1_a_5 >= 0
a101 - temp_2_c_xor_5 >= 0
temp_2_c_and_5 + x_1_a_5 + temp_2_c_xor_5 <= 2
temp_2_c_and_6 + x_1_a_6 + temp_2_c_xor_6 - 2 a102 >= 0
a102 - temp_2_c_and_6 >= 0
a102 - x_1_a_6 >= 0
a102 - temp_2_c_xor_6 >= 0
temp_2_c_and_6 + x_1_a_6 + temp_2_c_xor_6 <= 2
temp_2_c_and_7 + x_1_a_7 + temp_2_c_xor_7 - 2 a103 >= 0
a103 - temp_2_c_and_7 >= 0
a103 - x_1_a_7 >= 0
a103 - temp_2_c_xor_7 >= 0
temp_2_c_and_7 + x_1_a_7 + temp_2_c_xor_7 <= 2
x_2_c_2 + temp_2_c_xor_0 + x_2_b_0 - 2 a104 >= 0
a104 - x_2_c_2 >= 0
a104 - temp_2_c_xor_0 >= 0
a104 - x_2_b_0 >= 0
x_2_c_2 + temp_2_c_xor_0 + x_2_b_0 <= 2
x_2_c_3 + temp_2_c_xor_1 + x_2_b_1 - 2 a105 >= 0
a105 - x_2_c_3 >= 0
a105 - temp_2_c_xor_1 >= 0
a105 - x_2_b_1 >= 0
x_2_c_3 + temp_2_c_xor_1 + x_2_b_1 <= 2
x_2_c_4 + temp_2_c_xor_2 + x_2_b_2 - 2 a106 >= 0
a106 - x_2_c_4 >= 0
a106 - temp_2_c_xor_2 >= 0
a106 - x_2_b_2 >= 0
x_2_c_4 + temp_2_c_xor_2 + x_2_b_2 <= 2
x_2_c_5 + temp_2_c_xor_3 + x_2_b_3 - 2 a107 >= 0
a107 - x_2_c_5 >= 0
a107 - temp_2_c_xor_3 >= 0
a107 - x_2_b_3 >= 0
x_2_c_5 + temp_2_c_xor_3 + x_2_b_3 <= 2
x_2_c_6 + temp_2_c_xor_4 + x_2_b_4 - 2 a108 >= 0
a108 - x_2_c_6 >= 0
a108 - temp_2_c_xor_4 >= 0
a108 - x_2_b_4 >= 0
x_2_c_6 + temp_2_c_xor_4 + x_2_b_4 <= 2
x_2_c_7 + temp_2_c_xor_5 + x_2_b_5 - 2 a109 >= 0
a109 - x_2_c_7 >= 0
a109 - temp_2_c_xor_5 >= 0
a109 - x_2_b_5 >= 0
x_2_c_7 + temp_2_c_xor_5 + x_2_b_5 <= 2
x_2_c_0 + temp_2_c_xor_6 + x_2_b_6 - 2 a110 >= 0
a110 - x_2_c_0 >= 0
a110 - temp_2_c_xor_6 >= 0
a110 - x_2_b_6 >= 0
x_2_c_0 + temp_2_c_xor_6 + x_2_b_6 <= 2
x_2_c_1 + temp_2_c_xor_7 + x_2_b_7 - 2 a111 >= 0
a111 - x_2_c_1 >= 0
a111 - temp_2_c_xor_7 >= 0
a111 - x_2_b_7 >= 0
x_2_c_1 + temp_2_c_xor_7 + x_2_b_7 <= 2
y56 - temp_2_d_and_0 >= 0
x_2_a_1 - y56 <= 0
x_2_a_7 - y56 <= 0
x_2_a_1 + x_2_a_7 - y56 >= 0
y57 - temp_2_d_and_1 >= 0
x_2_a_2 - y57 <= 0
x_2_a_0 - y57 <= 0
x_2_a_2 + x_2_a_0 - y57 >= 0
y58 - temp_2_d_and_2 >= 0
x_2_a_3 - y58 <= 0
x_2_a_1 - y58 <= 0
x_2_a_3 + x_2_a_1 - y58 >= 0
y59 - temp_2_d_and_3 >= 0
x_2_a_4 - y59 <= 0
x_2_a_2 - y59 <= 0
x_2_a_4 + x_2_a_2 - y59 >= 0
y60 - temp_2_d_and_4 >= 0
x_2_a_5 - y60 <= 0
x_2_a_3 - y60 <= 0
x_2_a_5 + x_2_a_3 - y60 >= 0
y61 - temp_2_d_and_5 >= 0
x_2_a_6 - y61 <= 0
x_2_a_4 - y61 <= 0
x_2_a_6 + x_2_a_4 - y61 >= 0
y62 - temp_2_d_and_6 >= 0
x_2_a_7 - y62 <= 0
x_2_a_5 - y62 <= 0
x_2_a_7 + x_2_a_5 - y62 >= 0
y63 - temp_2_d_and_7 >= 0
x_2_a_0 - y63 <= 0
x_2_a_6 - y63 <= 0
x_2_a_0 + x_2_a_6 - y63 >= 0
temp_2_d_and_0 + x_1_c_0 + temp_2_d_xor_0 - 2 a112 >= 0
a112 - temp_2_d_and_0 >= 0
a112 - x_1_c_0 >= 0
a112 - temp_2_d_xor_0 >= 0
temp_2_d_and_0 + x_1_c_0 + temp_2_d_xor_0 <= 2
temp_2_d_and_1 + x_1_c_1 + temp_2_d_xor_1 - 2 a113 >= 0
a113 - temp_2_d_and_1 >= 0
a113 - x_1_c_1 >= 0
a113 - temp_2_d_xor_1 >= 0
temp_2_d_and_1 + x_1_c_1 + temp_2_d_xor_1 <= 2
temp_2_d_and_2 + x_1_c_2 + temp_2_d_xor_2 - 2 a114 >= 0
a114 - temp_2_d_and_2 >= 0
a114 - x_1_c_2 >= 0
a114 - temp_2_d_xor_2 >= 0
temp_2_d_and_2 + x_1_c_2 + temp_2_d_xor_2 <= 2
temp_2_d_and_3 + x_1_c_3 + temp_2_d_xor_3 - 2 a115 >= 0
a115 - temp_2_d_and_3 >= 0
a115 - x_1_c_3 >= 0
a115 - temp_2_d_xor_3 >= 0
temp_2_d_and_3 + x_1_c_3 + temp_2_d_xor_3 <= 2
temp_2_d_and_4 + x_1_c_4 + temp_2_d_xor_4 - 2 a116 >= 0
a116 - temp_2_d_and_4 >= 0
a116 - x_1_c_4 >= 0
a116 - temp_2_d_xor_4 >= 0
temp_2_d_and_4 + x_1_c_4 + temp_2_d_xor_4 <= 2
temp_2_d_and_5 + x_1_c_5 + temp_2_d_xor_5 - 2 a117 >= 0
a117 - temp_2_d_and_5 >= 0
a117 - x_1_c_5 >= 0
a117 - temp_2_d_xor_5 >= 0
temp_2_d_and_5 + x_1_c_5 + temp_2_d_xor_5 <= 2
temp_2_d_and_6 + x_1_c_6 + temp_2_d_xor_6 - 2 a118 >= 0
a118 - temp_2_d_and_6 >= 0
a118 - x_1_c_6 >= 0
a118 - temp_2_d_xor_6 >= 0
temp_2_d_and_6 + x_1_c_6 + temp_2_d_xor_6 <= 2
temp_2_d_and_7 + x_1_c_7 + temp_2_d_xor_7 - 2 a119 >= 0
a119 - temp_2_d_and_7 >= 0
a119 - x_1_c_7 >= 0
a119 - temp_2_d_xor_7 >= 0
temp_2_d_and_7 + x_1_c_7 + temp_2_d_xor_7 <= 2
x_2_a_2 + temp_2_d_xor_0 + x_2_d_0 - 2 a120 >= 0
a120 - x_2_a_2 >= 0
a120 - temp_2_d_xor_0 >= 0
a120 - x_2_d_0 >= 0
x_2_a_2 + temp_2_d_xor_0 + x_2_d_0 <= 2
x_2_a_3 + temp_2_d_xor_1 + x_2_d_1 - 2 a121 >= 0
a121 - x_2_a_3 >= 0
a121 - temp_2_d_xor_1 >= 0
a121 - x_2_d_1 >= 0
x_2_a_3 + temp_2_d_xor_1 + x_2_d_1 <= 2
x_2_a_4 + temp_2_d_xor_2 + x_2_d_2 - 2 a122 >= 0
a122 - x_2_a_4 >= 0
a122 - temp_2_d_xor_2 >= 0
a122 - x_2_d_2 >= 0
x_2_a_4 + temp_2_d_xor_2 + x_2_d_2 <= 2
x_2_a_5 + temp_2_d_xor_3 + x_2_d_3 - 2 a123 >= 0
a123 - x_2_a_5 >= 0
a123 - temp_2_d_xor_3 >= 0
a123 - x_2_d_3 >= 0
x_2_a_5 + temp_2_d_xor_3 + x_2_d_3 <= 2
x_2_a_6 + temp_2_d_xor_4 + x_2_d_4 - 2 a124 >= 0
a124 - x_2_a_6 >= 0
a124 - temp_2_d_xor_4 >= 0
a124 - x_2_d_4 >= 0
x_2_a_6 + temp_2_d_xor_4 + x_2_d_4 <= 2
x_2_a_7 + temp_2_d_xor_5 + x_2_d_5 - 2 a125 >= 0
a125 - x_2_a_7 >= 0
a125 - temp_2_d_xor_5 >= 0
a125 - x_2_d_5 >= 0
x_2_a_7 + temp_2_d_xor_5 + x_2_d_5 <= 2
x_2_a_0 + temp_2_d_xor_6 + x_2_d_6 - 2 a126 >= 0
a126 - x_2_a_0 >= 0
a126 - temp_2_d_xor_6 >= 0
a126 - x_2_d_6 >= 0
x_2_a_0 + temp_2_d_xor_6 + x_2_d_6 <= 2
x_2_a_1 + temp_2_d_xor_7 + x_2_d_7 - 2 a127 >= 0
a127 - x_2_a_1 >= 0
a127 - temp_2_d_xor_7 >= 0
a127 - x_2_d_7 >= 0
x_2_a_1 + temp_2_d_xor_7 + x_2_d_7 <= 2
x_0_a_0 - x_2_a_0 = 0 
x_0_b_0 - x_2_b_0 = 0 
x_0_c_0 - x_2_c_0 = 0 
x_0_d_0 - x_2_d_0 = 0 
x_0_a_1 - x_2_a_1 = 0 
x_0_b_1 - x_2_b_1 = 0 
x_0_c_1 - x_2_c_1 = 0 
x_0_d_1 - x_2_d_1 = 0 
x_0_a_2 - x_2_a_2 = 0 
x_0_b_2 - x_2_b_2 = 0 
x_0_c_2 - x_2_c_2 = 0 
x_0_d_2 - x_2_d_2 = 0 
x_0_a_3 - x_2_a_3 = 0 
x_0_b_3 - x_2_b_3 = 0 
x_0_c_3 - x_2_c_3 = 0 
x_0_d_3 - x_2_d_3 = 0 
x_0_a_4 - x_2_a_4 = 0 
x_0_b_4 - x_2_b_4 = 0 
x_0_c_4 - x_2_c_4 = 0 
x_0_d_4 - x_2_d_4 = 0 
x_0_a_5 - x_2_a_5 = 0 
x_0_b_5 - x_2_b_5 = 0 
x_0_c_5 - x_2_c_5 = 0 
x_0_d_5 - x_2_d_5 = 0 
x_0_a_6 - x_2_a_6 = 0 
x_0_b_6 - x_2_b_6 = 0 
x_0_c_6 - x_2_c_6 = 0 
x_0_d_6 - x_2_d_6 = 0 
x_0_a_7 - x_2_a_7 = 0 
x_0_b_7 - x_2_b_7 = 0 
x_0_c_7 - x_2_c_7 = 0 
x_0_d_7 - x_2_d_7 = 0 
x_0_a_0 + x_0_a_1 + x_0_a_2 + x_0_a_3 + x_0_a_4 + x_0_a_5 + x_0_a_6 + x_0_a_7 + x_0_b_0 + x_0_b_1 + x_0_b_2 + x_0_b_3 + x_0_b_4 + x_0_b_5 + x_0_b_6 + x_0_b_7 + x_0_c_0 + x_0_c_1 + x_0_c_2 + x_0_c_3 + x_0_c_4 + x_0_c_5 + x_0_c_6 + x_0_c_7 + x_0_d_0 + x_0_d_1 + x_0_d_2 + x_0_d_3 + x_0_d_4 + x_0_d_5 + x_0_d_6 + x_0_d_7 >= 1
Binary
x_0_a_0
x_0_a_1
x_0_a_2
x_0_a_3
x_0_a_4
x_0_a_5
x_0_a_6
x_0_a_7
x_0_b_0
x_0_b_1
x_0_b_2
x_0_b_3
x_0_b_4
x_0_b_5
x_0_b_6
x_0_b_7
x_0_c_0
x_0_c_1
x_0_c_2
x_0_c_3
x_0_c_4
x_0_c_5
x_0_c_6
x_0_c_7
x_0_d_0
x_0_d_1
x_0_d_2
x_0_d_3
x_0_d_4
x_0_d_5
x_0_d_6
x_0_d_7
x_1_a_0
x_1_a_1
x_1_a_2
x_1_a_3
x_1_a_4
x_1_a_5
x_1_a_6
x_1_a_7
x_1_b_0
x_1_b_1
x_1_b_2
x_1_b_3
x_1_b_4
x_1_b_5
x_1_b_6
x_1_b_7
x_1_c_0
x_1_c_1
x_1_c_2
x_1_c_3
x_1_c_4
x_1_c_5
x_1_c_6
x_1_c_7
x_1_d_0
x_1_d_1
x_1_d_2
x_1_d_3
x_1_d_4
x_1_d_5
x_1_d_6
x_1_d_7
x_2_a_0
x_2_a_1
x_2_a_2
x_2_a_3
x_2_a_4
x_2_a_5
x_2_a_6
x_2_a_7
x_2_b_0
x_2_b_1
x_2_b_2
x_2_b_3
x_2_b_4
x_2_b_5
x_2_b_6
x_2_b_7
x_2_c_0
x_2_c_1
x_2_c_2
x_2_c_3
x_2_c_4
x_2_c_5
x_2_c_6
x_2_c_7
x_2_d_0
x_2_d_1
x_2_d_2
x_2_d_3
x_2_d_4
x_2_d_5
x_2_d_6
x_2_d_7
temp_1_a_and_0
temp_1_a_and_1
temp_1_a_and_2
temp_1_a_and_3
temp_1_a_and_4
temp_1_a_and_5
temp_1_a_and_6
temp_1_a_and_7
temp_1_a_xor_0
temp_1_a_xor_1
temp_1_a_xor_2
temp_1_a_xor_3
temp_1_a_xor_4
temp_1_a_xor_5
temp_1_a_xor_6
temp_1_a_xor_7
temp_1_b_and_0
temp_1_b_and_1
temp_1_b_and_2
temp_1_b_and_3
temp_1_b_and_4
temp_1_b_and_5
temp_1_b_and_6
temp_1_b_and_7
temp_1_b_xor_0
temp_1_b_xor_1
temp_1_b_xor_2
temp_1_b_xor_3
temp_1_b_xor_4
temp_1_b_xor_5
temp_1_b_xor_6
temp_1_b_xor_7
temp_1_c_and_0
temp_1_c_and_1
temp_1_c_and_2
temp_1_c_and_3
temp_1_c_and_4
temp_1_c_and_5
temp_1_c_and_6
temp_1_c_and_7
temp_1_c_xor_0
temp_1_c_xor_1
temp_1_c_xor_2
temp_1_c_xor_3
temp_1_c_xor_4
temp_1_c_xor_5
temp_1_c_xor_6
temp_1_c_xor_7
temp_1_d_and_0
temp_1_d_and_1
temp_1_d_and_2
temp_1_d_and_3
temp_1_d_and_4
temp_1_d_and_5
temp_1_d_and_6
temp_1_d_and_7
temp_1_d_xor_0
temp_1_d_xor_1
temp_1_d_xor_2
temp_1_d_xor_3
temp_1_d_xor_4
temp_1_d_xor_5
temp_1_d_xor_6
temp_1_d_xor_7
temp_2_a_and_0
temp_2_a_and_1
temp_2_a_and_2
temp_2_a_and_3
temp_2_a_and_4
temp_2_a_and_5
temp_2_a_and_6
temp_2_a_and_7
temp_2_a_xor_0
temp_2_a_xor_1
temp_2_a_xor_2
temp_2_a_xor_3
temp_2_a_xor_4
temp_2_a_xor_5
temp_2_a_xor_6
temp_2_a_xor_7
temp_2_b_and_0
temp_2_b_and_1
temp_2_b_and_2
temp_2_b_and_3
temp_2_b_and_4
temp_2_b_and_5
temp_2_b_and_6
temp_2_b_and_7
temp_2_b_xor_0
temp_2_b_xor_1
temp_2_b_xor_2
temp_2_b_xor_3
temp_2_b_xor_4
temp_2_b_xor_5
temp_2_b_xor_6
temp_2_b_xor_7
temp_2_c_and_0
temp_2_c_and_1
temp_2_c_and_2
temp_2_c_and_3
temp_2_c_and_4
temp_2_c_and_5
temp_2_c_and_6
temp_2_c_and_7
temp_2_c_xor_0
temp_2_c_xor_1
temp_2_c_xor_2
temp_2_c_xor_3
temp_2_c_xor_4
temp_2_c_xor_5
temp_2_c_xor_6
temp_2_c_xor_7
temp_2_d_and_0
temp_2_d_and_1
temp_2_d_and_2
temp_2_d_and_3
temp_2_d_and_4
temp_2_d_and_5
temp_2_d_and_6
temp_2_d_and_7
temp_2_d_xor_0
temp_2_d_xor_1
temp_2_d_xor_2
temp_2_d_xor_3
temp_2_d_xor_4
temp_2_d_xor_5
temp_2_d_xor_6
temp_2_d_xor_7
a0
a1
a2
a3
a4
a5
a6
a7
a8
a9
a10
a11
a12
a13
a14
a15
a16
a17
a18
a19
a20
a21
a22
a23
a24
a25
a26
a27
a28
a29
a30
a31
a32
a33
a34
a35
a36
a37
a38
a39
a40
a41
a42
a43
a44
a45
a46
a47
a48
a49
a50
a51
a52
a53
a54
a55
a56
a57
a58
a59
a60
a61
a62
a63
a64
a65
a66
a67
a68
a69
a70
a71
a72
a73
a74
a75
a76
a77
a78
a79
a80
a81
a82
a83
a84
a85
a86
a87
a88
a89
a90
a91
a92
a93
a94
a95
a96
a97
a98
a99
a100
a101
a102
a103
a104
a105
a106
a107
a108
a109
a110
a111
a112
a113
a114
a115
a116
a117
a118
a119
a120
a121
a122
a123
a124
a125
a126
a127
y0
y1
y2
y3
y4
y5
y6
y7
y8
y9
y10
y11
y12
y13
y14
y15
y16
y17
y18
y19
y20
y21
y22
y23
y24
y25
y26
y27
y28
y29
y30
y31
y32
y33
y34
y35
y36
y37
y38
y39
y40
y41
y42
y43
y44
y45
y46
y47
y48
y49
y50
y51
y52
y53
y54
y55
y56
y57
y58
y59
y60
y61
y62
y63
END